# Objective value = 2.9152627618594818e+02
x[0] 1
x[1] 0
x[2] 0
x[3] 0
x[4] 1
x[5] 1
x[6] 1
x[7] 0
x[8] 0
x[9] 1
x[10] 0
x[11] 0
x[12] 0
x[13] 1
x[14] 1
x[15] 1
x[16] 1
x[17] 0
x[18] 0
x[19] 1
x[20] 0
x[21] 0
x[22] 0
x[23] 1
x[24] 0
x[25] 0
x[26] 0
x[27] 0
x[28] 0
x[29] 0
x[30] 0
x[31] 0
x[32] 0
x[33] 1
x[34] 1
x[35] 0
x[36] 0
x[37] 1
x[38] 0
x[39] 0
x[40] 1
x[41] 1
x[42] 0
x[43] 1
x[44] 0
x[45] 0
x[46] 1
x[47] 0
x[48] 1
x[49] 1
x[50] 0
x[51] 1
x[52] 0
x[53] 1
x[54] 0
x[55] 1
x[56] 1
x[57] 1
x[58] 1
x[59] 1
x[60] 1
x[61] 0
x[62] 1
x[63] 1
x[64] 1
x[65] 0
x[66] 1
x[67] 1
x[68] 1
x[69] 1
x[70] 1
x[71] 0
x[72] 1
x[73] 0
x[74] 1
x[75] 1
x[76] 1
x[77] 0
x[78] 1
x[79] 1
x[80] 0
x[81] 0
x[82] 1
x[83] 0
x[84] 1
x[85] 1
x[86] 0
x[87] 0
x[88] 1
x[89] 1
x[90] 1
x[91] 0
x[92] 1
x[93] 0
x[94] 1
x[95] 1
x[96] 0
x[97] 1
x[98] 1
x[99] 0
x[100] 1
x[101] 1
x[102] 1
x[103] 1
x[104] 1
x[105] 0
x[106] 1
x[107] 0
x[108] 1
x[109] 1
x[110] 0
x[111] 1
x[112] 1
x[113] 1
x[114] 0
x[115] 0
x[116] 0
x[117] 0
x[118] 1
x[119] 1
x[120] 0
x[121] 0
x[122] 0
x[123] 0
x[124] 0
x[125] 0
x[126] 1
x[127] 1
x[128] 0
x[129] 0
x[130] 0
x[131] 0
x[132] 1
x[133] 0
x[134] 1
x[135] 0
x[136] 0
x[137] 0
x[138] 0
x[139] 0
x[140] 0
x[141] 1
x[142] 1
x[143] 1
x[144] 0
x[145] 0
x[146] 1
x[147] 1
x[148] 1
x[149] 1
x[150] 1
x[151] 1
x[152] 1
x[153] 0
x[154] 0
x[155] 0
x[156] 0
x[157] 1
x[158] 0
x[159] 0
x[160] 0
x[161] 0
x[162] 0
x[163] 0
x[164] 1
x[165] 0
x[166] 1
x[167] 1
x[168] 1
x[169] 0
x[170] 1
x[171] 1
x[172] 1
x[173] 0
x[174] 1
x[175] 1
x[176] 1
x[177] 1
x[178] 1
x[179] 1
x[180] 0
x[181] 0
x[182] 1
x[183] 1
x[184] 0
x[185] 1
x[186] 0
x[187] 0
x[188] 1
x[189] 0
x[190] 0
x[191] 0
x[192] 0
x[193] 0
x[194] 1
x[195] 0
x[196] 1
x[197] 1
x[198] 0
x[199] 1
x[200] 0
x[201] 0
x[202] 0
x[203] 1
x[204] 0
x[205] 1
x[206] 1
x[207] 1
x[208] 1
x[209] 1
x[210] 1
x[211] 0
x[212] 1
x[213] 0
x[214] 0
x[215] 1
x[216] 0
x[217] 0
x[218] 1
x[219] 1
x[220] 1
x[221] 1
x[222] 0
x[223] 1
x[224] 1
x[225] 1
x[226] 0
x[227] 0
x[228] 0
x[229] 1
x[230] 1
x[231] 1
x[232] 0
x[233] 1
x[234] 0
x[235] 0
x[236] 0
x[237] 0
x[238] 1
x[239] 0
x[240] 1
x[241] 1
x[242] 0
x[243] 1
x[244] 0
x[245] 1
x[246] 1
x[247] 0
x[248] 1
x[249] 0
x[250] 0
x[251] 0
x[252] 1
x[253] 0
x[254] 0
x[255] 0
x[256] 1
x[257] 1
x[258] 0
x[259] 1
x[260] 0
x[261] 1
x[262] 1
x[263] 1
x[264] 0
x[265] 0
x[266] 0
x[267] 0
x[268] 0
x[269] 1
x[270] 0
x[271] 1
x[272] 0
x[273] 1
x[274] 0
x[275] 1
x[276] 1
x[277] 1
x[278] 1
x[279] 1
x[280] 0
x[281] 1
x[282] 1
x[283] 1
x[284] 1
x[285] 1
x[286] 0
x[287] 0
x[288] 1
x[289] 1
x[290] 0
x[291] 0
x[292] 1
x[293] 0
x[294] 0
x[295] 1
x[296] 0
x[297] 1
x[298] 1
x[299] 0
x[300] 0
x[301] 1
x[302] 1
x[303] 1
x[304] 1
x[305] 1
x[306] 1
x[307] 1
x[308] 1
x[309] 0
x[310] 0
x[311] 0
x[312] 0
x[313] 1
x[314] 0
x[315] 1
x[316] 0
x[317] 0
x[318] 0
x[319] 0
x[320] 1
x[321] 0
x[322] 1
x[323] 1
x[324] 1
x[325] 1
x[326] 1
x[327] 1
x[328] 0
x[329] 1
x[330] 1
x[331] 1
x[332] 0
x[333] 0
x[334] 0
x[335] 0
x[336] 0
x[337] 0
x[338] 0
x[339] 1
x[340] 1
x[341] 0
x[342] 0
x[343] 1
x[344] 1
x[345] 0
x[346] 1
x[347] 0
x[348] 1
x[349] 1
x[350] 0
x[351] 0
x[352] 1
x[353] 1
x[354] 0
x[355] 1
x[356] 1
x[357] 1
x[358] 1
x[359] 0
x[360] 1
x[361] 0
x[362] 1
x[363] 1
x[364] 0
x[365] 0
x[366] 0
x[367] 1
x[368] 0
x[369] 1
x[370] 0
x[371] 1
x[372] 1
x[373] 0
x[374] 0
x[375] 0
x[376] 1
x[377] 1
x[378] 1
x[379] 1
x[380] 0
x[381] 1
x[382] 0
x[383] 1
x[384] 1
x[385] 1
x[386] 0
x[387] 0
x[388] 0
x[389] 0
x[390] 1
x[391] 1
x[392] 0
x[393] 1
x[394] 0
x[395] 0
x[396] 1
x[397] 0
x[398] 0
x[399] 0
x[400] 1
x[401] 0
x[402] 0
x[403] 0
x[404] 0
x[405] 0
x[406] 0
x[407] 1
x[408] 0
x[409] 0
x[410] 0
x[411] 0
x[412] 0
x[413] 0
x[414] 0
x[415] 0
x[416] 0
x[417] 1
x[418] 1
x[419] 1
x[420] 1
x[421] 1
x[422] 0
x[423] 0
x[424] 0
x[425] 0
x[426] 1
x[427] 1
x[428] 0
x[429] 0
x[430] 1
x[431] 1
x[432] 1
x[433] 0
x[434] 0
x[435] 1
x[436] 0
x[437] 1
x[438] 0
x[439] 0
x[440] 0
x[441] 0
x[442] 1
x[443] 0
x[444] 1
x[445] 0
x[446] 0
x[447] 1
x[448] 1
x[449] 1
x[450] 1
x[451] 1
x[452] 1
x[453] 0
x[454] 1
x[455] 0
x[456] 0
x[457] 1
x[458] 1
x[459] 0
x[460] 1
x[461] 0
x[462] 1
x[463] 0
x[464] 1
x[465] 0
x[466] 0
x[467] 0
x[468] 1
x[469] 0
x[470] 1
x[471] 1
x[472] 1
x[473] 0
x[474] 0
x[475] 0
x[476] 0
x[477] 0
x[478] 1
x[479] 1
x[480] 0
x[481] 0
x[482] 1
x[483] 0
x[484] 0
x[485] 0
x[486] 1
x[487] 0
x[488] 1
x[489] 0
x[490] 0
x[491] 0
x[492] 0
x[493] 1
x[494] 1
x[495] 1
x[496] 0
x[497] 0
x[498] 1
x[499] 0
x[500] 0
x[501] 0
x[502] 1
x[503] 1
x[504] 0
x[505] 0
x[506] 1
x[507] 1
x[508] 0
x[509] 0
x[510] 0
x[511] 0
x[512] 1
x[513] 1
x[514] 1
x[515] 0
x[516] 1
x[517] 0
x[518] 1
x[519] 0
x[520] 1
x[521] 0
x[522] 0
x[523] 1
x[524] 0
x[525] 0
x[526] 0
x[527] 0
x[528] 0
x[529] 0
x[530] 1
x[531] 1
x[532] 0
x[533] 0
x[534] 0
x[535] 0
x[536] 1
x[537] 0
x[538] 0
x[539] 0
x[540] 0
x[541] 1
x[542] 1
x[543] 1
x[544] 0
x[545] 1
x[546] 0
x[547] 0
x[548] 0
x[549] 1
x[550] 1
x[551] 0
x[552] 1
x[553] 0
x[554] 1
x[555] 1
x[556] 1
x[557] 1
x[558] 0
x[559] 1
x[560] 0
x[561] 0
x[562] 0
x[563] 1
x[564] 0
x[565] 0
x[566] 0
x[567] 0
x[568] 1
x[569] 1
x[570] 1
x[571] 1
x[572] 0
x[573] 1
x[574] 1
x[575] 0
x[576] 0
x[577] 0
x[578] 1
x[579] 1
x[580] 0
x[581] 0
x[582] 1
x[583] 0
x[584] 1
x[585] 1
x[586] 0
x[587] 1
x[588] 1
x[589] 0
x[590] 1
x[591] 1
x[592] 1
x[593] 1
x[594] 0
x[595] 0
x[596] 1
x[597] 1
x[598] 1
x[599] 0
x[600] 1
x[601] 0
x[602] 1
x[603] 1
x[604] 1
x[605] 0
x[606] 1
x[607] 1
x[608] 1
x[609] 0
x[610] 0
x[611] 0
x[612] 0
x[613] 0
x[614] 0
x[615] 1
x[616] 1
x[617] 1
x[618] 0
x[619] 0
x[620] 0
x[621] 0
x[622] 0
x[623] 1
x[624] 1
x[625] 0
x[626] 1
x[627] 0
x[628] 0
x[629] 1
x[630] 1
x[631] 0
x[632] 0
x[633] 0
x[634] 1
x[635] 0
x[636] 1
x[637] 0
x[638] 0
x[639] 1
x[640] 1
x[641] 0
x[642] 1
x[643] 0
x[644] 0
x[645] 1
x[646] 1
x[647] 1
x[648] 1
x[649] 1
x[650] 1
x[651] 1
x[652] 0
x[653] 0
x[654] 1
x[655] 0
x[656] 1
x[657] 1
x[658] 0
x[659] 1
x[660] 0
x[661] 0
x[662] 1
x[663] 1
x[664] 0
x[665] 0
x[666] 0
x[667] 0
x[668] 1
x[669] 1
x[670] 1
x[671] 0
x[672] 1
x[673] 0
x[674] 0
x[675] 0
x[676] 1
x[677] 1
x[678] 1
x[679] 1
x[680] 0
x[681] 1
x[682] 0
x[683] 1
x[684] 0
x[685] 0
x[686] 0
x[687] 1
x[688] 1
x[689] 1
x[690] 0
x[691] 1
x[692] 1
x[693] 1
x[694] 0
x[695] 1
x[696] 0
x[697] 1
x[698] 0
x[699] 0
x[700] 1
x[701] 1
x[702] 1
x[703] 1
x[704] 1
x[705] 0
x[706] 1
x[707] 1
x[708] 1
x[709] 0
x[710] 0
x[711] 0
x[712] 0
x[713] 1
x[714] 0
x[715] 1
x[716] 1
x[717] 0
x[718] 1
x[719] 0
x[720] 0
x[721] 0
x[722] 0
x[723] 1
x[724] 0
x[725] 0
x[726] 0
x[727] 0
x[728] 0
x[729] 0
x[730] 0
x[731] 0
x[732] 0
x[733] 1
x[734] 0
x[735] 1
x[736] 1
x[737] 1
x[738] 0
x[739] 1
x[740] 1
x[741] 1
x[742] 0
x[743] 1
x[744] 1
x[745] 0
x[746] 0
x[747] 1
x[748] 1
x[749] 1
x[750] 0
x[751] 0
x[752] 0
x[753] 0
x[754] 1
x[755] 0
x[756] 0
x[757] 0
x[758] 0
x[759] 1
x[760] 1
x[761] 1
x[762] 0
x[763] 0
x[764] 1
x[765] 1
x[766] 0
x[767] 1
x[768] 0
x[769] 0
x[770] 1
x[771] 1
x[772] 1
x[773] 1
x[774] 0
x[775] 1
x[776] 0
x[777] 0
x[778] 1
x[779] 0
x[780] 1
x[781] 0
x[782] 0
x[783] 0
x[784] 0
x[785] 0
x[786] 1
x[787] 0
x[788] 1
x[789] 0
x[790] 1
x[791] 0
x[792] 0
x[793] 0
x[794] 0
x[795] 1
x[796] 1
x[797] 0
x[798] 1
x[799] 1
x[800] 0
x[801] 0
x[802] 0
x[803] 1
x[804] 0
x[805] 0
x[806] 1
x[807] 1
x[808] 1
x[809] 0
x[810] 0
x[811] 1
x[812] 0
x[813] 1
x[814] 1
x[815] 0
x[816] 0
x[817] 1
x[818] 0
x[819] 1
x[820] 1
x[821] 1
x[822] 1
x[823] 0
x[824] 0
x[825] 1
x[826] 0
x[827] 1
x[828] 0
x[829] 0
x[830] 1
x[831] 0
x[832] 0
x[833] 1
x[834] 0
x[835] 0
x[836] 1
x[837] 0
x[838] 0
x[839] 1
x[840] 0
x[841] 0
x[842] 0
x[843] 1
x[844] 0
x[845] 0
x[846] 0
x[847] 0
x[848] 0
x[849] 0
x[850] 0
x[851] 0
x[852] 0
x[853] 0
x[854] 0
x[855] 0
x[856] 0
x[857] 1
x[858] 1
x[859] 1
x[860] 1
x[861] 1
x[862] 0
x[863] 1
x[864] 1
x[865] 1
x[866] 1
x[867] 0
x[868] 1
x[869] 0
x[870] 0
x[871] 1
x[872] 0
x[873] 0
x[874] 0
x[875] 0
x[876] 0
x[877] 0
x[878] 1
x[879] 1
x[880] 0
x[881] 1
x[882] 0
x[883] 1
x[884] 1
x[885] 0
x[886] 0
x[887] 0
x[888] 1
x[889] 0
x[890] 0
x[891] 1
x[892] 0
x[893] 1
x[894] 0
x[895] 0
x[896] 1
x[897] 0
x[898] 0
x[899] 1
x[900] 0
x[901] 0
x[902] 1
x[903] 0
x[904] 1
x[905] 1
x[906] 0
x[907] 0
x[908] 1
x[909] 0
x[910] 0
x[911] 0
x[912] 0
x[913] 0
x[914] 1
x[915] 1
x[916] 1
x[917] 1
x[918] 1
x[919] 0
x[920] 0
x[921] 1
x[922] 0
x[923] 1
x[924] 1
x[925] 0
x[926] 0
x[927] 0
x[928] 1
x[929] 0
x[930] 0
x[931] 0
x[932] 0
x[933] 1
x[934] 0
x[935] 0
x[936] 1
x[937] 0
x[938] 1
x[939] 0
x[940] 1
x[941] 0
x[942] 0
x[943] 0
x[944] 1
x[945] 0
x[946] 1
x[947] 0
x[948] 0
x[949] 0
x[950] 0
x[951] 1
x[952] 1
x[953] 1
x[954] 1
x[955] 0
x[956] 1
x[957] 1
x[958] 1
x[959] 0
x[960] 0
x[961] 1
x[962] 0
x[963] 1
x[964] 0
x[965] 0
x[966] 0
x[967] 0
x[968] 1
x[969] 1
x[970] 0
x[971] 0
x[972] 1
x[973] 0
x[974] 1
x[975] 1
x[976] 1
x[977] 0
x[978] 1
x[979] 0
x[980] 1
x[981] 0
x[982] 1
x[983] 0
x[984] 1
x[985] 0
x[986] 1
x[987] 1
x[988] 0
x[989] 1
x[990] 0
x[991] 1
x[992] 1
x[993] 1
x[994] 0
x[995] 0
x[996] 1
x[997] 1
x[998] 1
x[999] 0
